cliques=[{0,2,5,9,15,28},{1,0,16,19,29},{0,2,5,9,15,28},{3,5,8,20,21,32},{1,4,11,17,25,32},{0,2,5,9,15,28},{6,8,14,24,29,30},{7,9,10,11,14,26},{3,5,8,20,21,32},{0,2,5,9,15,28},{7,9,10,11,14,26},{1,4,11,17,25,32},{2,4,12,18,24,33},{6,13,23,25,28,31},{7,9,10,11,14,26},{0,2,5,9,15,28},{0,1,16,19,29},{1,4,11,17,25,32},{2,4,12,18,24,33},{0,1,16,19,29},{3,5,8,20,21,32},{3,5,8,20,21,32},{3,7,19,22,23,33},{3,7,19,22,23,33},{2,4,12,18,24,33},{1,4,11,17,25,32},{7,9,10,11,14,26},{10,12,13,20,27},{0,2,5,9,15,28},{0,1,16,19,29},{6,8,14,24,29,30},{6,13,23,25,28,31},{3,5,8,20,21,32},{2,4,12,18,24,33}];
nr_cliques=34;
